StudentsNr = 10;
InstructorsNr = 71;
DaysNr = 2;
SlotsPerDay = 10;
AvailabilitySlotsLenght = 10;
RoomNr = 2;
ProgrammNr = 1;
DegreeNr = 2;
RolesNr = 0;
CoursesNr = 9;
InstructorsProgramm = [{1}, {1}, {1}, {1}, {1}, {1}, {1}, {1}, {1}, {1}, {1}, {1}, {1}, {1}, {1}, {1}, {1}, {1}, {1}, {1}, {1}, {1}, {1}, {1}, {1}, {1}, {1}, {1}, {1}, {1}, {1}, {1}, {1}, {1}, {1}, {1}, {1}, {1}, {1}, {1}, {1}, {1}, {1}, {1}, {1}, {1}, {1}, {1}, {1}, {1}, {1}, {1}, {1}, {1}, {1}, {1}, {1}, {1}, {1}, {1}, {1}, {1}, {1}, {1}, {1}, {1}, {1}, {1}, {1}, {1}, {1}];
InstructorRolesPerProgramm = array2d(1..ProgrammNr,{},[]);
InstructorsAvailability = [|1, 1, |1, 1, |0, 1, |0, 1, |0, 0, |0, 1, |1, 1, |1, 1, |0, 1, |0, 1, |1, 1, |0, 1, |1, 1, |1, 0, |0, 1, |1, 0, |1, 0, |0, 0, |1, 1, |0, 0, |0, 1, |0, 1, |1, 1, |0, 1, |1, 1, |1, 1, |1, 0, |1, 1, |1, 0, |1, 1, |0, 1, |0, 1, |1, 1, |0, 1, |0, 0, |1, 1, |1, 1, |0, 0, |1, 1, |1, 1, |1, 1, |1, 0, |1, 1, |1, 1, |0, 1, |0, 1, |0, 1, |1, 0, |1, 1, |1, 1, |1, 1, |1, 1, |0, 0, |1, 1, |1, 1, |0, 1, |0, 0, |1, 1, |0, 0, |1, 1, |1, 1, |0, 0, |0, 1, |0, 1, |1, 1, |1, 1, |1, 1, |1, 1, |1, 1, |1, 1, |1, 1|];
StudentsProgramm = [1, 1, 1, 1, 1, 1, 1, 1, 1, 1];
StudentsDegree = [2, 2, 2, 2, 2, 2, 1, 1, 2, 1];
StudentsSupervisorId = [6, 9, 4, 20, 36, 20, 33, 47, 29, 15];
StudentsCourseIds = [{2}, {8}, {6}, {9}, {6}, {6}, {2, 4, 7, 9}, {2, 5, 6, 9}, {6}, {1, 6, 7, 9}];
StudentsAvailability = [|0, 0, |1, 1, |1, 1, |0, 1, |0, 0, |0, 1, |0, 0, |0, 1, |1, 1, |0, 0|];
TheoryticalMinCard = [1, 2, 1, 1, 1, 2, 4, 4, 2, 4];
CoursesInstructorIds = [{6, 8, 13, 20, 31, 33, 42, 47, 53, 58, 62, 66, 70}, {3, 6, 8, 9, 11, 14, 17, 20, 21, 22, 23, 24, 27, 28, 29, 32, 34, 35, 40, 44, 45, 47, 48, 50, 51, 52, 53, 54, 56, 57, 59, 60, 61, 64, 66, 68, 71}, {2, 34, 44, 64, 66}, {1, 2, 3, 5, 7, 9, 11, 14, 15, 17, 18, 19, 20, 21, 22, 23, 25, 26, 28, 30, 34, 36, 37, 38, 39, 42, 45, 47, 49, 50, 51, 57, 59, 61, 62, 63, 65, 68, 69, 70}, {1, 3, 7, 9, 12, 13, 14, 17, 18, 20, 23, 24, 25, 27, 29, 30, 33, 36, 39, 41, 42, 43, 45, 46, 47, 48, 49, 51, 52, 53, 55, 58, 59, 60, 61, 62, 63, 65, 66, 67, 68, 69, 70, 71}, {2, 4, 5, 7, 8, 9, 10, 14, 17, 23, 26, 27, 28, 31, 32, 34, 36, 37, 38, 41, 42, 43, 44, 45, 46, 47, 48, 52, 53, 59, 60, 61, 62, 65}, {2, 3, 5, 7, 11, 12, 14, 15, 27, 31, 33, 42, 43, 44, 48, 57, 64, 71}, {1, 2, 4, 8, 13, 14, 16, 19, 20, 21, 23, 25, 29, 32, 33, 36, 37, 39, 40, 42, 45, 46, 47, 50, 52, 55, 56, 57, 58, 59, 61, 63, 64, 65, 66, 68, 69}, {2, 6, 7, 8, 10, 11, 13, 15, 16, 17, 20, 23, 24, 25, 28, 29, 30, 32, 36, 37, 38, 40, 43, 47, 49, 52, 54, 55, 57, 60, 61, 64, 65, 67, 69}];
RolesDemands = [];
RolesContinuity = [];
ExamLen = [1, 1, 1, 1, 1, 1, 2, 2, 1, 2];
LunchTsMinLen = 0;
LunchStarts = [2..7, 13..16];
SupervisorAvailable = 0;
OptimalLunchLenght = [3, 1];
OptimalStartTs = [2, 0];
OptimalFinishTs = [2, 10];
MinimizeRooms = 100;
RolesSoftContinuity = array2d(1..2,{},[]);
SameDegreeInRoom = 0;
Mergeability = 1;
